(set-info :smt-lib-version 2.6)
(set-logic UF)
(set-info :source |Benchmarks from the paper: "Extending Sledgehammer with SMT Solvers" by Jasmin Blanchette, Sascha Bohme, and Lawrence C. Paulson, CADE 2011.  Translated to SMT2 by Andrew Reynolds and Morgan Deters.|)
(set-info :category "industrial")
(set-info :status unknown)
(declare-sort S1 0)
(declare-sort S2 0)
(declare-sort S3 0)
(declare-sort S4 0)
(declare-sort S5 0)
(declare-sort S6 0)
(declare-sort S7 0)
(declare-sort S8 0)
(declare-sort S9 0)
(declare-sort S10 0)
(declare-sort S11 0)
(declare-sort S12 0)
(declare-sort S13 0)
(declare-sort S14 0)
(declare-sort S15 0)
(declare-fun f1 () S1)
(declare-fun f2 () S1)
(declare-fun f3 (S2 S3) S4)
(declare-fun f4 (S5 S4) S2)
(declare-fun f5 () S5)
(declare-fun f6 (S6 S4) S4)
(declare-fun f7 () S6)
(declare-fun f8 () S2)
(declare-fun f9 () S3)
(declare-fun f10 () S3)
(declare-fun f11 () S4)
(declare-fun f12 (S7 S3) S1)
(declare-fun f13 (S3) S7)
(declare-fun f14 (S8 S3) S9)
(declare-fun f15 (S10 S9) S8)
(declare-fun f16 () S10)
(declare-fun f17 () S9)
(declare-fun f18 (S11 S3) S3)
(declare-fun f19 (S12 S3) S11)
(declare-fun f20 () S12)
(declare-fun f21 () S3)
(declare-fun f22 () S3)
(declare-fun f23 () S4)
(declare-fun f24 (S9 S9) S1)
(declare-fun f25 () S9)
(declare-fun f26 () S12)
(declare-fun f27 (S9 S9) S1)
(declare-fun f28 (S3) S7)
(declare-fun f29 (S13 S9) S9)
(declare-fun f30 (S14 S9) S13)
(declare-fun f31 () S14)
(declare-fun f32 (S15 S4) S6)
(declare-fun f33 () S15)
(assert (not (= f1 f2)))
(assert (not (not (= (f3 (f4 f5 (f6 f7 (f3 f8 f9))) f10) f11))))
(assert (= (f12 (f13 f10) f9) f1))
(assert (forall ((?v0 S3)) (= (f3 (f4 f5 (f3 f8 ?v0)) ?v0) f11)))
(assert (forall ((?v0 S4) (?v1 S3)) (= (f6 f7 (f3 (f4 f5 ?v0) ?v1)) (f3 (f4 f5 (f6 f7 ?v0)) ?v1))))
(assert (= (f6 f7 f11) f11))
(assert (forall ((?v0 S4)) (= (= (f6 f7 ?v0) f11) (= ?v0 f11))))
(assert (forall ((?v0 S3)) (= (f3 (f4 f5 f11) ?v0) f11)))
(assert (forall ((?v0 S3)) (= (f14 (f15 f16 f17) ?v0) f17)))
(assert (forall ((?v0 S3)) (= (f18 (f19 f20 f21) ?v0) f21)))
(assert (forall ((?v0 S4)) (= (f6 f7 (f6 f7 ?v0)) ?v0)))
(assert (forall ((?v0 S4) (?v1 S4)) (= (= (f6 f7 ?v0) (f6 f7 ?v1)) (= ?v0 ?v1))))
(assert (forall ((?v0 S4) (?v1 S4)) (=> (= (f6 f7 ?v0) (f6 f7 ?v1)) (= ?v0 ?v1))))
(assert (= (f12 (f13 f22) f10) f1))
(assert (forall ((?v0 S4)) (= (= f11 ?v0) (= ?v0 f11))))
(assert (forall ((?v0 S9)) (= (= f17 ?v0) (= ?v0 f17))))
(assert (forall ((?v0 S3)) (= (= f21 ?v0) (= ?v0 f21))))
(assert (forall ((?v0 S3)) (not (= (f3 f8 ?v0) f23))))
(assert (forall ((?v0 S4) (?v1 S3)) (=> (not (= ?v0 f23)) (= (f6 f7 (f3 (f4 f5 ?v0) ?v1)) (f3 (f4 f5 (f6 f7 ?v0)) ?v1)))))
(assert (forall ((?v0 S4)) (= (f3 (f4 f5 ?v0) f22) f11)))
(assert (forall ((?v0 S9)) (= (f14 (f15 f16 ?v0) f22) f17)))
(assert (forall ((?v0 S3)) (= (f18 (f19 f20 ?v0) f22) f21)))
(assert (not (= (f24 f17 f25) f1)))
(assert (not (= (f12 (f13 f21) f22) f1)))
(assert (= (f24 f25 f17) f1))
(assert (= (f12 (f13 f22) f21) f1))
(assert (forall ((?v0 S9)) (= (= f25 ?v0) (= ?v0 f25))))
(assert (forall ((?v0 S3)) (= (= f22 ?v0) (= ?v0 f22))))
(assert (forall ((?v0 S4)) (= (= f23 ?v0) (= ?v0 f23))))
(assert (forall ((?v0 S3) (?v1 S3)) (let ((?v_0 (f13 f22))) (= (= (f12 ?v_0 (f18 (f19 f20 ?v0) ?v1)) f1) (or (= (f12 ?v_0 ?v0) f1) (= ?v1 f22))))))
(assert (forall ((?v0 S9) (?v1 S3)) (= (= (f14 (f15 f16 ?v0) ?v1) f25) (and (= ?v0 f25) (not (= ?v1 f22))))))
(assert (forall ((?v0 S3) (?v1 S3)) (= (= (f18 (f19 f20 ?v0) ?v1) f22) (and (= ?v0 f22) (not (= ?v1 f22))))))
(assert (forall ((?v0 S4) (?v1 S3)) (= (= (f3 (f4 f5 ?v0) ?v1) f23) (and (= ?v0 f23) (not (= ?v1 f22))))))
(assert (forall ((?v0 S9) (?v1 S9)) (=> (not (= ?v0 ?v1)) (=> (=> (= (f24 ?v0 ?v1) f1) false) (=> (=> (= (f24 ?v1 ?v0) f1) false) false)))))
(assert (forall ((?v0 S9) (?v1 S3)) (=> (= (f24 f25 ?v0) f1) (= (f24 f25 (f14 (f15 f16 ?v0) ?v1)) f1))))
(assert (forall ((?v0 S3) (?v1 S3)) (let ((?v_0 (f13 f22))) (=> (= (f12 ?v_0 ?v0) f1) (= (f12 ?v_0 (f18 (f19 f20 ?v0) ?v1)) f1)))))
(assert (forall ((?v0 S3) (?v1 S3) (?v2 S3)) (let ((?v_0 (f19 f20 ?v0))) (=> (= (f12 (f13 f22) ?v0) f1) (=> (= (f12 (f13 (f18 ?v_0 ?v1)) (f18 ?v_0 ?v2)) f1) (= (f12 (f13 ?v1) ?v2) f1))))))
(assert (forall ((?v0 S3) (?v1 S3) (?v2 S9)) (let ((?v_0 (f15 f16 ?v2))) (=> (= (f12 (f13 ?v0) ?v1) f1) (=> (= (f24 f25 ?v2) f1) (=> (= (f24 ?v2 f17) f1) (= (f24 (f14 ?v_0 ?v1) (f14 ?v_0 ?v0)) f1)))))))
(assert (forall ((?v0 S3) (?v1 S3) (?v2 S3)) (let ((?v_0 (f19 f20 ?v2))) (=> (= (f12 (f13 ?v0) ?v1) f1) (=> (= (f12 (f13 f22) ?v2) f1) (=> (= (f12 (f13 ?v2) f21) f1) (= (f12 (f13 (f18 ?v_0 ?v1)) (f18 ?v_0 ?v0)) f1)))))))
(assert (forall ((?v0 S9) (?v1 S3)) (=> (= (f24 f17 ?v0) f1) (=> (= (f12 (f13 f22) ?v1) f1) (= (f24 f17 (f14 (f15 f16 ?v0) ?v1)) f1)))))
(assert (forall ((?v0 S3) (?v1 S3)) (let ((?v_0 (f13 f21))) (=> (= (f12 ?v_0 ?v0) f1) (=> (= (f12 (f13 f22) ?v1) f1) (= (f12 ?v_0 (f18 (f19 f20 ?v0) ?v1)) f1))))))
(assert (not (= f23 f11)))
(assert (not (= f25 f17)))
(assert (not (= f22 f21)))
(assert (not (= f11 f23)))
(assert (not (= f17 f25)))
(assert (not (= f21 f22)))
(assert (forall ((?v0 S9)) (= (f14 (f15 f16 ?v0) f21) ?v0)))
(assert (forall ((?v0 S4)) (= (f3 (f4 f5 ?v0) f21) ?v0)))
(assert (forall ((?v0 S3)) (= (f18 (f19 f20 ?v0) f21) ?v0)))
(assert (forall ((?v0 S9) (?v1 S3)) (=> (not (= ?v0 f25)) (not (= (f14 (f15 f16 ?v0) ?v1) f25)))))
(assert (forall ((?v0 S4) (?v1 S3)) (=> (not (= ?v0 f23)) (not (= (f3 (f4 f5 ?v0) ?v1) f23)))))
(assert (forall ((?v0 S4) (?v1 S4)) (=> (= (f6 f7 ?v0) (f6 f7 ?v1)) (=> (not (= ?v0 f23)) (=> (not (= ?v1 f23)) (= ?v0 ?v1))))))
(assert (forall ((?v0 S4)) (=> (= (f6 f7 ?v0) f23) (= ?v0 f23))))
(assert (forall ((?v0 S4)) (=> (not (= ?v0 f23)) (= (f6 f7 (f6 f7 ?v0)) ?v0))))
(assert (forall ((?v0 S4)) (=> (not (= ?v0 f23)) (not (= (f6 f7 ?v0) f23)))))
(assert (forall ((?v0 S4)) (= (= (f6 f7 ?v0) f23) (= ?v0 f23))))
(assert (= (f6 f7 f23) f23))
(assert (= (f6 f7 f23) f23))
(assert (forall ((?v0 S3) (?v1 S3) (?v2 S9)) (let ((?v_0 (f15 f16 ?v2))) (=> (= (f12 (f13 ?v0) ?v1) f1) (=> (= (f24 f17 ?v2) f1) (= (f24 (f14 ?v_0 ?v0) (f14 ?v_0 ?v1)) f1))))))
(assert (forall ((?v0 S3) (?v1 S3) (?v2 S3)) (let ((?v_0 (f19 f20 ?v2))) (=> (= (f12 (f13 ?v0) ?v1) f1) (=> (= (f12 (f13 f21) ?v2) f1) (= (f12 (f13 (f18 ?v_0 ?v0)) (f18 ?v_0 ?v1)) f1))))))
(assert (forall ((?v0 S9) (?v1 S3) (?v2 S3)) (let ((?v_0 (f15 f16 ?v0))) (=> (= (f24 f17 ?v0) f1) (=> (= (f24 (f14 ?v_0 ?v1) (f14 ?v_0 ?v2)) f1) (= (f12 (f13 ?v1) ?v2) f1))))))
(assert (forall ((?v0 S3) (?v1 S3) (?v2 S3)) (let ((?v_0 (f19 f20 ?v0))) (=> (= (f12 (f13 f21) ?v0) f1) (=> (= (f12 (f13 (f18 ?v_0 ?v1)) (f18 ?v_0 ?v2)) f1) (= (f12 (f13 ?v1) ?v2) f1))))))
(assert (forall ((?v0 S9) (?v1 S3) (?v2 S3)) (let ((?v_0 (f15 f16 ?v0))) (=> (= (f24 f17 ?v0) f1) (= (= (f24 (f14 ?v_0 ?v1) (f14 ?v_0 ?v2)) f1) (= (f12 (f13 ?v1) ?v2) f1))))))
(assert (forall ((?v0 S3) (?v1 S3) (?v2 S3)) (let ((?v_0 (f19 f20 ?v0))) (=> (= (f12 (f13 f21) ?v0) f1) (= (= (f12 (f13 (f18 ?v_0 ?v1)) (f18 ?v_0 ?v2)) f1) (= (f12 (f13 ?v1) ?v2) f1))))))
(assert (forall ((?v0 S3)) (= (f3 (f4 f5 f23) ?v0) (ite (= ?v0 f22) f11 f23))))
(assert (forall ((?v0 S3)) (= (f14 (f15 f16 f25) ?v0) (ite (= ?v0 f22) f17 f25))))
(assert (forall ((?v0 S3)) (= (f18 (f19 f20 f22) ?v0) (ite (= ?v0 f22) f21 f22))))
(assert (forall ((?v0 S9) (?v1 S3) (?v2 S3)) (let ((?v_0 (f15 f16 ?v0))) (=> (= (f24 f17 ?v0) f1) (= (= (f14 ?v_0 ?v1) (f14 ?v_0 ?v2)) (= ?v1 ?v2))))))
(assert (forall ((?v0 S3) (?v1 S3) (?v2 S3)) (let ((?v_0 (f19 f20 ?v0))) (=> (= (f12 (f13 f21) ?v0) f1) (= (= (f18 ?v_0 ?v1) (f18 ?v_0 ?v2)) (= ?v1 ?v2))))))
(assert (forall ((?v0 S3)) (=> (= (f12 (f13 ?v0) f22) f1) false)))
(assert (forall ((?v0 S4)) (= (f3 (f4 f5 ?v0) f22) f11)))
(assert (forall ((?v0 S9)) (= (f14 (f15 f16 ?v0) f22) f17)))
(assert (forall ((?v0 S3)) (= (f18 (f19 f20 ?v0) f22) f21)))
(assert (forall ((?v0 S3)) (not (= (f12 (f13 ?v0) f22) f1))))
(assert (forall ((?v0 S3)) (= (not (= ?v0 f22)) (= (f12 (f13 f22) ?v0) f1))))
(assert (forall ((?v0 S3) (?v1 S3)) (let ((?v_0 (f13 f22))) (= (= (f12 ?v_0 (f18 (f19 f20 ?v0) ?v1)) f1) (or (= ?v1 f22) (= (f12 ?v_0 ?v0) f1))))))
(assert (forall ((?v0 S3)) (= (= (f12 (f13 ?v0) f22) f1) false)))
(assert (forall ((?v0 S3) (?v1 S3)) (=> (= (f12 (f13 ?v0) ?v1) f1) (not (= ?v1 f22)))))
(assert (forall ((?v0 S3)) (=> (=> (= ?v0 f22) false) (= (f12 (f13 f22) ?v0) f1))))
(assert (forall ((?v0 S3) (?v1 S3) (?v2 S3)) (let ((?v_0 (f19 f26 ?v0))) (=> (= (f12 (f13 f22) ?v0) f1) (= (f3 (f4 f5 (f3 f8 (f18 ?v_0 ?v1))) (f18 ?v_0 ?v2)) (f3 (f4 f5 (f3 f8 ?v1)) ?v2))))))
(assert (forall ((?v0 S9) (?v1 S9) (?v2 S3)) (=> (= (f24 ?v0 ?v1) f1) (=> (= (f27 f25 ?v0) f1) (=> (= (f12 (f13 f22) ?v2) f1) (= (f24 (f14 (f15 f16 ?v0) ?v2) (f14 (f15 f16 ?v1) ?v2)) f1))))))
(assert (forall ((?v0 S3) (?v1 S3) (?v2 S3)) (=> (= (f12 (f13 ?v0) ?v1) f1) (=> (= (f12 (f28 f22) ?v0) f1) (=> (= (f12 (f13 f22) ?v2) f1) (= (f12 (f13 (f18 (f19 f20 ?v0) ?v2)) (f18 (f19 f20 ?v1) ?v2)) f1))))))
(assert (forall ((?v0 S3)) (= (f12 (f28 f22) ?v0) f1)))
(assert (forall ((?v0 S3)) (= (f18 (f19 f26 f21) ?v0) ?v0)))
(assert (forall ((?v0 S3) (?v1 S3)) (= (= f21 (f18 (f19 f26 ?v0) ?v1)) (and (= ?v0 f21) (= ?v1 f21)))))
(assert (forall ((?v0 S3)) (= (f18 (f19 f26 ?v0) f21) ?v0)))
(assert (forall ((?v0 S3) (?v1 S3)) (= (= (f18 (f19 f26 ?v0) ?v1) f21) (and (= ?v0 f21) (= ?v1 f21)))))
(assert (forall ((?v0 S9) (?v1 S9) (?v2 S9)) (let ((?v_0 (f30 f31 ?v0))) (= (f29 (f30 f31 (f29 ?v_0 ?v1)) ?v2) (f29 ?v_0 (f29 (f30 f31 ?v1) ?v2))))))
(assert (forall ((?v0 S4) (?v1 S4) (?v2 S4)) (let ((?v_0 (f32 f33 ?v0))) (= (f6 (f32 f33 (f6 ?v_0 ?v1)) ?v2) (f6 ?v_0 (f6 (f32 f33 ?v1) ?v2))))))
(assert (forall ((?v0 S3) (?v1 S3) (?v2 S3)) (let ((?v_0 (f19 f26 ?v0))) (= (f18 (f19 f26 (f18 ?v_0 ?v1)) ?v2) (f18 ?v_0 (f18 (f19 f26 ?v1) ?v2))))))
(assert (forall ((?v0 S3) (?v1 S3) (?v2 S3) (?v3 S3)) (=> (= (f12 (f28 ?v0) ?v1) f1) (=> (= (f12 (f28 ?v2) ?v3) f1) (= (f12 (f28 (f18 (f19 f26 ?v0) ?v2)) (f18 (f19 f26 ?v1) ?v3)) f1)))))
(assert (forall ((?v0 S3) (?v1 S3) (?v2 S3)) (let ((?v_0 (f19 f26 ?v2))) (=> (= (f12 (f28 ?v0) ?v1) f1) (= (f12 (f28 (f18 ?v_0 ?v0)) (f18 ?v_0 ?v1)) f1)))))
(assert (forall ((?v0 S3) (?v1 S3) (?v2 S3)) (=> (= (f12 (f28 ?v0) ?v1) f1) (= (f12 (f28 (f18 (f19 f26 ?v0) ?v2)) (f18 (f19 f26 ?v1) ?v2)) f1))))
(assert (forall ((?v0 S9) (?v1 S9) (?v2 S9) (?v3 S9)) (let ((?v_0 (f30 f31 ?v0))) (= (f29 (f30 f31 (f29 ?v_0 ?v1)) (f29 (f30 f31 ?v2) ?v3)) (f29 (f30 f31 (f29 ?v_0 ?v2)) (f29 (f30 f31 ?v1) ?v3))))))
(assert (forall ((?v0 S4) (?v1 S4) (?v2 S4) (?v3 S4)) (let ((?v_0 (f32 f33 ?v0))) (= (f6 (f32 f33 (f6 ?v_0 ?v1)) (f6 (f32 f33 ?v2) ?v3)) (f6 (f32 f33 (f6 ?v_0 ?v2)) (f6 (f32 f33 ?v1) ?v3))))))
(assert (forall ((?v0 S3) (?v1 S3) (?v2 S3) (?v3 S3)) (let ((?v_0 (f19 f26 ?v0))) (= (f18 (f19 f26 (f18 ?v_0 ?v1)) (f18 (f19 f26 ?v2) ?v3)) (f18 (f19 f26 (f18 ?v_0 ?v2)) (f18 (f19 f26 ?v1) ?v3))))))
(assert (forall ((?v0 S9) (?v1 S9) (?v2 S9) (?v3 S9)) (let ((?v_1 (f30 f31 (f29 (f30 f31 ?v0) ?v1))) (?v_0 (f30 f31 ?v2))) (= (f29 ?v_1 (f29 ?v_0 ?v3)) (f29 ?v_0 (f29 ?v_1 ?v3))))))
(assert (forall ((?v0 S4) (?v1 S4) (?v2 S4) (?v3 S4)) (let ((?v_1 (f32 f33 (f6 (f32 f33 ?v0) ?v1))) (?v_0 (f32 f33 ?v2))) (= (f6 ?v_1 (f6 ?v_0 ?v3)) (f6 ?v_0 (f6 ?v_1 ?v3))))))
(assert (forall ((?v0 S3) (?v1 S3) (?v2 S3) (?v3 S3)) (let ((?v_1 (f19 f26 (f18 (f19 f26 ?v0) ?v1))) (?v_0 (f19 f26 ?v2))) (= (f18 ?v_1 (f18 ?v_0 ?v3)) (f18 ?v_0 (f18 ?v_1 ?v3))))))
(assert (forall ((?v0 S9) (?v1 S9) (?v2 S9) (?v3 S9)) (let ((?v_0 (f30 f31 ?v0)) (?v_1 (f29 (f30 f31 ?v2) ?v3))) (= (f29 (f30 f31 (f29 ?v_0 ?v1)) ?v_1) (f29 ?v_0 (f29 (f30 f31 ?v1) ?v_1))))))
(assert (forall ((?v0 S4) (?v1 S4) (?v2 S4) (?v3 S4)) (let ((?v_0 (f32 f33 ?v0)) (?v_1 (f6 (f32 f33 ?v2) ?v3))) (= (f6 (f32 f33 (f6 ?v_0 ?v1)) ?v_1) (f6 ?v_0 (f6 (f32 f33 ?v1) ?v_1))))))
(assert (forall ((?v0 S3) (?v1 S3) (?v2 S3) (?v3 S3)) (let ((?v_0 (f19 f26 ?v0)) (?v_1 (f18 (f19 f26 ?v2) ?v3))) (= (f18 (f19 f26 (f18 ?v_0 ?v1)) ?v_1) (f18 ?v_0 (f18 (f19 f26 ?v1) ?v_1))))))
(assert (forall ((?v0 S9) (?v1 S9) (?v2 S9)) (let ((?v_0 (f30 f31 ?v0))) (= (f29 (f30 f31 (f29 ?v_0 ?v1)) ?v2) (f29 (f30 f31 (f29 ?v_0 ?v2)) ?v1)))))
(assert (forall ((?v0 S4) (?v1 S4) (?v2 S4)) (let ((?v_0 (f32 f33 ?v0))) (= (f6 (f32 f33 (f6 ?v_0 ?v1)) ?v2) (f6 (f32 f33 (f6 ?v_0 ?v2)) ?v1)))))
(assert (forall ((?v0 S3) (?v1 S3) (?v2 S3)) (let ((?v_0 (f19 f26 ?v0))) (= (f18 (f19 f26 (f18 ?v_0 ?v1)) ?v2) (f18 (f19 f26 (f18 ?v_0 ?v2)) ?v1)))))
(assert (forall ((?v0 S9) (?v1 S9) (?v2 S9)) (let ((?v_0 (f30 f31 ?v0))) (= (f29 (f30 f31 (f29 ?v_0 ?v1)) ?v2) (f29 ?v_0 (f29 (f30 f31 ?v1) ?v2))))))
(assert (forall ((?v0 S4) (?v1 S4) (?v2 S4)) (let ((?v_0 (f32 f33 ?v0))) (= (f6 (f32 f33 (f6 ?v_0 ?v1)) ?v2) (f6 ?v_0 (f6 (f32 f33 ?v1) ?v2))))))
(assert (forall ((?v0 S3) (?v1 S3) (?v2 S3)) (let ((?v_0 (f19 f26 ?v0))) (= (f18 (f19 f26 (f18 ?v_0 ?v1)) ?v2) (f18 ?v_0 (f18 (f19 f26 ?v1) ?v2))))))
(assert (forall ((?v0 S3) (?v1 S3) (?v2 S3)) (let ((?v_0 (f19 f26 ?v0))) (= (f18 (f19 f26 (f18 ?v_0 ?v1)) ?v2) (f18 ?v_0 (f18 (f19 f26 ?v1) ?v2))))))
(assert (forall ((?v0 S9) (?v1 S9) (?v2 S9)) (let ((?v_0 (f30 f31 ?v0))) (= (f29 ?v_0 (f29 (f30 f31 ?v1) ?v2)) (f29 (f30 f31 (f29 ?v_0 ?v1)) ?v2)))))
(assert (forall ((?v0 S4) (?v1 S4) (?v2 S4)) (let ((?v_0 (f32 f33 ?v0))) (= (f6 ?v_0 (f6 (f32 f33 ?v1) ?v2)) (f6 (f32 f33 (f6 ?v_0 ?v1)) ?v2)))))
(assert (forall ((?v0 S3) (?v1 S3) (?v2 S3)) (let ((?v_0 (f19 f26 ?v0))) (= (f18 ?v_0 (f18 (f19 f26 ?v1) ?v2)) (f18 (f19 f26 (f18 ?v_0 ?v1)) ?v2)))))
(assert (forall ((?v0 S9) (?v1 S9) (?v2 S9)) (let ((?v_1 (f30 f31 ?v0)) (?v_0 (f30 f31 ?v1))) (= (f29 ?v_1 (f29 ?v_0 ?v2)) (f29 ?v_0 (f29 ?v_1 ?v2))))))
(assert (forall ((?v0 S4) (?v1 S4) (?v2 S4)) (let ((?v_1 (f32 f33 ?v0)) (?v_0 (f32 f33 ?v1))) (= (f6 ?v_1 (f6 ?v_0 ?v2)) (f6 ?v_0 (f6 ?v_1 ?v2))))))
(assert (forall ((?v0 S3) (?v1 S3) (?v2 S3)) (let ((?v_1 (f19 f26 ?v0)) (?v_0 (f19 f26 ?v1))) (= (f18 ?v_1 (f18 ?v_0 ?v2)) (f18 ?v_0 (f18 ?v_1 ?v2))))))
(assert (forall ((?v0 S3) (?v1 S3)) (= (f18 (f19 f26 ?v0) ?v1) (f18 (f19 f26 ?v1) ?v0))))
(assert (forall ((?v0 S9) (?v1 S9)) (= (f29 (f30 f31 ?v0) ?v1) (f29 (f30 f31 ?v1) ?v0))))
(assert (forall ((?v0 S4) (?v1 S4)) (= (f6 (f32 f33 ?v0) ?v1) (f6 (f32 f33 ?v1) ?v0))))
(assert (forall ((?v0 S3) (?v1 S3)) (= (f18 (f19 f26 ?v0) ?v1) (f18 (f19 f26 ?v1) ?v0))))
(assert (forall ((?v0 S3)) (let ((?v_0 (f19 f26 ?v0))) (= (f12 (f28 ?v0) (f18 ?v_0 (f18 ?v_0 ?v0))) f1))))
(assert (forall ((?v0 S3)) (= (f12 (f28 ?v0) (f18 (f19 f26 ?v0) ?v0)) f1)))
(assert (forall ((?v0 S9) (?v1 S9)) (=> (or (and (= (f27 f25 ?v0) f1) (= (f27 ?v1 f25) f1)) (and (= (f27 ?v0 f25) f1) (= (f27 f25 ?v1) f1))) (= (f27 (f29 (f30 f31 ?v0) ?v1) f25) f1))))
(assert (forall ((?v0 S3) (?v1 S3)) (let ((?v_0 (f28 f22))) (=> (or (and (= (f12 ?v_0 ?v0) f1) (= (f12 (f28 ?v1) f22) f1)) (and (= (f12 (f28 ?v0) f22) f1) (= (f12 ?v_0 ?v1) f1))) (= (f12 (f28 (f18 (f19 f26 ?v0) ?v1)) f22) f1)))))
(assert (forall ((?v0 S9) (?v1 S9)) (=> (or (and (= (f27 f25 ?v0) f1) (= (f27 f25 ?v1) f1)) (and (= (f27 ?v0 f25) f1) (= (f27 ?v1 f25) f1))) (= (f27 f25 (f29 (f30 f31 ?v0) ?v1)) f1))))
(assert (forall ((?v0 S9) (?v1 S9) (?v2 S9) (?v3 S9)) (=> (= (f27 ?v0 ?v1) f1) (=> (= (f27 ?v2 ?v3) f1) (=> (= (f27 f25 ?v1) f1) (=> (= (f27 f25 ?v2) f1) (= (f27 (f29 (f30 f31 ?v0) ?v2) (f29 (f30 f31 ?v1) ?v3)) f1)))))))
(assert (forall ((?v0 S3) (?v1 S3) (?v2 S3) (?v3 S3)) (let ((?v_0 (f28 f22))) (=> (= (f12 (f28 ?v0) ?v1) f1) (=> (= (f12 (f28 ?v2) ?v3) f1) (=> (= (f12 ?v_0 ?v1) f1) (=> (= (f12 ?v_0 ?v2) f1) (= (f12 (f28 (f18 (f19 f26 ?v0) ?v2)) (f18 (f19 f26 ?v1) ?v3)) f1))))))))
(assert (forall ((?v0 S9) (?v1 S9) (?v2 S9) (?v3 S9)) (=> (= (f27 ?v0 ?v1) f1) (=> (= (f27 ?v2 ?v3) f1) (=> (= (f27 f25 ?v0) f1) (=> (= (f27 f25 ?v2) f1) (= (f27 (f29 (f30 f31 ?v0) ?v2) (f29 (f30 f31 ?v1) ?v3)) f1)))))))
(assert (forall ((?v0 S3) (?v1 S3) (?v2 S3) (?v3 S3)) (let ((?v_0 (f28 f22))) (=> (= (f12 (f28 ?v0) ?v1) f1) (=> (= (f12 (f28 ?v2) ?v3) f1) (=> (= (f12 ?v_0 ?v0) f1) (=> (= (f12 ?v_0 ?v2) f1) (= (f12 (f28 (f18 (f19 f26 ?v0) ?v2)) (f18 (f19 f26 ?v1) ?v3)) f1))))))))
(assert (forall ((?v0 S9) (?v1 S9) (?v2 S9)) (let ((?v_0 (f30 f31 ?v2))) (=> (= (f27 ?v0 ?v1) f1) (=> (= (f27 ?v2 f25) f1) (= (f27 (f29 ?v_0 ?v1) (f29 ?v_0 ?v0)) f1))))))
(assert (forall ((?v0 S9) (?v1 S9) (?v2 S9)) (=> (= (f27 ?v0 ?v1) f1) (=> (= (f27 ?v2 f25) f1) (= (f27 (f29 (f30 f31 ?v1) ?v2) (f29 (f30 f31 ?v0) ?v2)) f1)))))
(assert (forall ((?v0 S9) (?v1 S9) (?v2 S9)) (let ((?v_0 (f30 f31 ?v2))) (=> (= (f27 ?v0 ?v1) f1) (=> (= (f27 f25 ?v2) f1) (= (f27 (f29 ?v_0 ?v0) (f29 ?v_0 ?v1)) f1))))))
(assert (forall ((?v0 S3) (?v1 S3) (?v2 S3)) (let ((?v_0 (f19 f26 ?v2))) (=> (= (f12 (f28 ?v0) ?v1) f1) (=> (= (f12 (f28 f22) ?v2) f1) (= (f12 (f28 (f18 ?v_0 ?v0)) (f18 ?v_0 ?v1)) f1))))))
(assert (forall ((?v0 S9) (?v1 S9) (?v2 S9)) (let ((?v_0 (f30 f31 ?v2))) (=> (= (f27 ?v0 ?v1) f1) (=> (= (f27 f25 ?v2) f1) (= (f27 (f29 ?v_0 ?v0) (f29 ?v_0 ?v1)) f1))))))
(assert (forall ((?v0 S3) (?v1 S3) (?v2 S3)) (let ((?v_0 (f19 f26 ?v2))) (=> (= (f12 (f28 ?v0) ?v1) f1) (=> (= (f12 (f28 f22) ?v2) f1) (= (f12 (f28 (f18 ?v_0 ?v0)) (f18 ?v_0 ?v1)) f1))))))
(assert (forall ((?v0 S9) (?v1 S9) (?v2 S9)) (=> (= (f27 ?v0 ?v1) f1) (=> (= (f27 f25 ?v2) f1) (= (f27 (f29 (f30 f31 ?v0) ?v2) (f29 (f30 f31 ?v1) ?v2)) f1)))))
(assert (forall ((?v0 S3) (?v1 S3) (?v2 S3)) (=> (= (f12 (f28 ?v0) ?v1) f1) (=> (= (f12 (f28 f22) ?v2) f1) (= (f12 (f28 (f18 (f19 f26 ?v0) ?v2)) (f18 (f19 f26 ?v1) ?v2)) f1)))))
(assert (forall ((?v0 S9) (?v1 S9)) (=> (= (f27 ?v0 f25) f1) (=> (= (f27 ?v1 f25) f1) (= (f27 f25 (f29 (f30 f31 ?v0) ?v1)) f1)))))
(assert (forall ((?v0 S9) (?v1 S9)) (=> (= (f27 ?v0 f25) f1) (=> (= (f27 f25 ?v1) f1) (= (f27 (f29 (f30 f31 ?v0) ?v1) f25) f1)))))
(assert (forall ((?v0 S3) (?v1 S3)) (=> (= (f12 (f28 ?v0) f22) f1) (=> (= (f12 (f28 f22) ?v1) f1) (= (f12 (f28 (f18 (f19 f26 ?v0) ?v1)) f22) f1)))))
(assert (forall ((?v0 S9) (?v1 S9)) (=> (= (f27 f25 ?v0) f1) (=> (= (f27 ?v1 f25) f1) (= (f27 (f29 (f30 f31 ?v1) ?v0) f25) f1)))))
(assert (forall ((?v0 S3) (?v1 S3)) (=> (= (f12 (f28 f22) ?v0) f1) (=> (= (f12 (f28 ?v1) f22) f1) (= (f12 (f28 (f18 (f19 f26 ?v1) ?v0)) f22) f1)))))
(assert (forall ((?v0 S9) (?v1 S9)) (=> (= (f27 f25 ?v0) f1) (=> (= (f27 ?v1 f25) f1) (= (f27 (f29 (f30 f31 ?v0) ?v1) f25) f1)))))
(assert (forall ((?v0 S3) (?v1 S3)) (=> (= (f12 (f28 f22) ?v0) f1) (=> (= (f12 (f28 ?v1) f22) f1) (= (f12 (f28 (f18 (f19 f26 ?v0) ?v1)) f22) f1)))))
(assert (forall ((?v0 S9) (?v1 S9)) (=> (= (f27 f25 ?v0) f1) (=> (= (f27 f25 ?v1) f1) (= (f27 f25 (f29 (f30 f31 ?v0) ?v1)) f1)))))
(assert (forall ((?v0 S3) (?v1 S3)) (let ((?v_0 (f28 f22))) (=> (= (f12 ?v_0 ?v0) f1) (=> (= (f12 ?v_0 ?v1) f1) (= (f12 ?v_0 (f18 (f19 f26 ?v0) ?v1)) f1))))))
(assert (forall ((?v0 S9) (?v1 S9)) (= (= (f27 (f29 (f30 f31 ?v0) ?v1) f25) f1) (or (and (= (f27 f25 ?v0) f1) (= (f27 ?v1 f25) f1)) (and (= (f27 ?v0 f25) f1) (= (f27 f25 ?v1) f1))))))
(assert (forall ((?v0 S9) (?v1 S9)) (= (= (f27 f25 (f29 (f30 f31 ?v0) ?v1)) f1) (or (and (= (f27 f25 ?v0) f1) (= (f27 f25 ?v1) f1)) (and (= (f27 ?v0 f25) f1) (= (f27 ?v1 f25) f1))))))
(assert (forall ((?v0 S9)) (= (f27 f25 (f29 (f30 f31 ?v0) ?v0)) f1)))
(assert (forall ((?v0 S9)) (= (f29 (f30 f31 ?v0) f25) f25)))
(assert (forall ((?v0 S3)) (= (f18 (f19 f26 ?v0) f22) f22)))
(assert (forall ((?v0 S4)) (= (f6 (f32 f33 ?v0) f23) f23)))
(assert (forall ((?v0 S9)) (= (f29 (f30 f31 f25) ?v0) f25)))
(assert (forall ((?v0 S3)) (= (f18 (f19 f26 f22) ?v0) f22)))
(assert (forall ((?v0 S4)) (= (f6 (f32 f33 f23) ?v0) f23)))
(assert (forall ((?v0 S4)) (= (f6 (f32 f33 f11) ?v0) ?v0)))
(assert (forall ((?v0 S9)) (= (f29 (f30 f31 f17) ?v0) ?v0)))
(assert (forall ((?v0 S3)) (= (f18 (f19 f26 f21) ?v0) ?v0)))
(assert (forall ((?v0 S4)) (= (f6 (f32 f33 ?v0) f11) ?v0)))
(assert (forall ((?v0 S9)) (= (f29 (f30 f31 ?v0) f17) ?v0)))
(assert (forall ((?v0 S3)) (= (f18 (f19 f26 ?v0) f21) ?v0)))
(assert (forall ((?v0 S3) (?v1 S3)) (=> (= ?v0 (f18 (f19 f26 ?v0) ?v1)) (or (= ?v1 f21) (= ?v0 f22)))))
(assert (forall ((?v0 S3) (?v1 S3) (?v2 S3)) (= (= (f18 (f19 f26 ?v0) ?v1) (f18 (f19 f26 ?v2) ?v1)) (or (= ?v0 ?v2) (= ?v1 f22)))))
(assert (forall ((?v0 S3) (?v1 S3) (?v2 S3)) (let ((?v_0 (f19 f26 ?v0))) (= (= (f18 ?v_0 ?v1) (f18 ?v_0 ?v2)) (or (= ?v1 ?v2) (= ?v0 f22))))))
(assert (forall ((?v0 S3) (?v1 S3)) (= (= (f18 (f19 f26 ?v0) ?v1) f22) (or (= ?v0 f22) (= ?v1 f22)))))
(assert (forall ((?v0 S3)) (= (f18 (f19 f26 ?v0) f22) f22)))
(assert (forall ((?v0 S3)) (= (f18 (f19 f26 f22) ?v0) f22)))
(assert (forall ((?v0 S9) (?v1 S9) (?v2 S3)) (= (f14 (f15 f16 (f29 (f30 f31 ?v0) ?v1)) ?v2) (f29 (f30 f31 (f14 (f15 f16 ?v0) ?v2)) (f14 (f15 f16 ?v1) ?v2)))))
(assert (forall ((?v0 S4) (?v1 S4) (?v2 S3)) (= (f3 (f4 f5 (f6 (f32 f33 ?v0) ?v1)) ?v2) (f6 (f32 f33 (f3 (f4 f5 ?v0) ?v2)) (f3 (f4 f5 ?v1) ?v2)))))
(assert (forall ((?v0 S3) (?v1 S3) (?v2 S3)) (= (f18 (f19 f20 (f18 (f19 f26 ?v0) ?v1)) ?v2) (f18 (f19 f26 (f18 (f19 f20 ?v0) ?v2)) (f18 (f19 f20 ?v1) ?v2)))))
(assert (forall ((?v0 S3)) (= (= (f12 (f28 ?v0) f22) f1) (= ?v0 f22))))
(assert (forall ((?v0 S3)) (= (= (f12 (f28 f22) ?v0) f1) true)))
(assert (forall ((?v0 S9) (?v1 S3) (?v2 S3)) (let ((?v_0 (f15 f16 ?v0))) (= (f14 (f15 f16 (f14 ?v_0 ?v1)) ?v2) (f14 ?v_0 (f18 (f19 f26 ?v1) ?v2))))))
(assert (forall ((?v0 S4) (?v1 S3) (?v2 S3)) (let ((?v_0 (f4 f5 ?v0))) (= (f3 (f4 f5 (f3 ?v_0 ?v1)) ?v2) (f3 ?v_0 (f18 (f19 f26 ?v1) ?v2))))))
(assert (forall ((?v0 S3) (?v1 S3) (?v2 S3)) (let ((?v_0 (f19 f20 ?v0))) (= (f18 (f19 f20 (f18 ?v_0 ?v1)) ?v2) (f18 ?v_0 (f18 (f19 f26 ?v1) ?v2))))))
(assert (forall ((?v0 S3) (?v1 S3)) (=> (or (= (f12 (f13 ?v0) ?v1) f1) (= ?v0 ?v1)) (= (f12 (f28 ?v0) ?v1) f1))))
(assert (forall ((?v0 S3) (?v1 S3)) (=> (= (f12 (f28 ?v0) ?v1) f1) (=> (not (= ?v0 ?v1)) (= (f12 (f13 ?v0) ?v1) f1)))))
(assert (forall ((?v0 S3) (?v1 S3)) (=> (= (f12 (f13 ?v0) ?v1) f1) (= (f12 (f28 ?v0) ?v1) f1))))
(assert (forall ((?v0 S3) (?v1 S3)) (= (= (f12 (f28 ?v0) ?v1) f1) (or (= (f12 (f13 ?v0) ?v1) f1) (= ?v0 ?v1)))))
(assert (forall ((?v0 S3) (?v1 S3)) (= (= (f12 (f13 ?v0) ?v1) f1) (and (= (f12 (f28 ?v0) ?v1) f1) (not (= ?v0 ?v1))))))
(assert (forall ((?v0 S3) (?v1 S3) (?v2 S3)) (= (= (f12 (f28 (f18 (f19 f26 ?v0) ?v1)) (f18 (f19 f26 ?v2) ?v1)) f1) (=> (= (f12 (f13 f22) ?v1) f1) (= (f12 (f28 ?v0) ?v2) f1)))))
(assert (forall ((?v0 S3) (?v1 S3) (?v2 S3)) (let ((?v_0 (f19 f26 ?v0))) (= (= (f12 (f28 (f18 ?v_0 ?v1)) (f18 ?v_0 ?v2)) f1) (=> (= (f12 (f13 f22) ?v0) f1) (= (f12 (f28 ?v1) ?v2) f1))))))
(assert (forall ((?v0 S9) (?v1 S9) (?v2 S9)) (let ((?v_0 (f30 f31 ?v0))) (=> (= (f27 (f29 ?v_0 ?v1) (f29 ?v_0 ?v2)) f1) (=> (= (f24 f25 ?v0) f1) (= (f27 ?v1 ?v2) f1))))))
(assert (forall ((?v0 S3) (?v1 S3) (?v2 S3)) (let ((?v_0 (f19 f26 ?v0))) (=> (= (f12 (f28 (f18 ?v_0 ?v1)) (f18 ?v_0 ?v2)) f1) (=> (= (f12 (f13 f22) ?v0) f1) (= (f12 (f28 ?v1) ?v2) f1))))))
(assert (forall ((?v0 S9) (?v1 S9) (?v2 S9)) (=> (= (f27 (f29 (f30 f31 ?v0) ?v1) (f29 (f30 f31 ?v2) ?v1)) f1) (=> (= (f24 f25 ?v1) f1) (= (f27 ?v0 ?v2) f1)))))
(assert (forall ((?v0 S3) (?v1 S3) (?v2 S3)) (=> (= (f12 (f28 (f18 (f19 f26 ?v0) ?v1)) (f18 (f19 f26 ?v2) ?v1)) f1) (=> (= (f12 (f13 f22) ?v1) f1) (= (f12 (f28 ?v0) ?v2) f1)))))
(check-sat)
(exit)
